decision_x1=[0,2];
decision_x2=[0,2];
decision_x3=[0,2];
decision_x4=[0,2];
decision_x5=[0,2];
decision_x6=[0,2];
decision_x7=[0,2];
decision_x8=[0,2];
decision_x9=[0,2];
decision_x10=[0,2];
decision_x11=[0,2];
decision_x12=[0,2];
random_y1=[0,2];
random_y2=[0,2];
random_y3=[0,2];
random_y4=[0,2];
random_y5=[0,2];
random_y6=[0,2];
random_y7=[0,2];
random_y8=[0,2];
random_y9=[0,2];
random_y10=[0,2];
random_y11=[0,2];
random_y12=[0,2];
constraint_x2_x1=[
0,0,6.5|
0,1,7.7|
0,2,7.2|
1,0,8.6|
1,1,5.3|
1,2,6.3|
2,0,4.6|
2,1,9.7|
2,2,1.4|
];
constraint_x3_x2=[
0,0,9.5|
0,1,5.9|
0,2,6.7|
1,0,8.7|
1,1,7.1|
1,2,5.3|
2,0,1.1|
2,1,5.9|
2,2,4.9|
];
constraint_x4_x3=[
0,0,6.3|
0,1,3.9|
0,2,1.4|
1,0,8.4|
1,1,2.3|
1,2,4.7|
2,0,8.9|
2,1,8.1|
2,2,4.4|
];
constraint_x5_x1=[
0,0,3.8|
0,1,1.8|
0,2,4.3|
1,0,1.3|
1,1,6|
1,2,9.8|
2,0,0.47|
2,1,8.3|
2,2,3.8|
];
constraint_x5_x2=[
0,0,9.7|
0,1,0.41|
0,2,1.7|
1,0,1.1|
1,1,0.5|
1,2,6.8|
2,0,3|
2,1,6.1|
2,2,3.9|
];
constraint_x5_x4=[
0,0,8.3|
0,1,4.3|
0,2,2.7|
1,0,0.44|
1,1,3.4|
1,2,6.3|
2,0,6.1|
2,1,4.6|
2,2,4|
];
constraint_x6_x2=[
0,0,4.1|
0,1,3.4|
0,2,6.9|
1,0,3.7|
1,1,2.1|
1,2,2.3|
2,0,7.3|
2,1,2.7|
2,2,8.8|
];
constraint_x6_x3=[
0,0,7.8|
0,1,9.1|
0,2,9.5|
1,0,5.1|
1,1,6.4|
1,2,7.6|
2,0,8|
2,1,6.8|
2,2,7|
];
constraint_x7_x2=[
0,0,5.8|
0,1,0.18|
0,2,4.8|
1,0,9.7|
1,1,6.9|
1,2,8.9|
2,0,9.3|
2,1,0.15|
2,2,8.5|
];
constraint_x7_x3=[
0,0,9.1|
0,1,4.9|
0,2,1.6|
1,0,7.6|
1,1,6.4|
1,2,6.2|
2,0,9.4|
2,1,4.4|
2,2,2.6|
];
constraint_x7_x4=[
0,0,1|
0,1,6|
0,2,4.2|
1,0,4.1|
1,1,8.4|
1,2,5.8|
2,0,8.7|
2,1,3.4|
2,2,0.92|
];
constraint_x7_x6=[
0,0,3.5|
0,1,4.8|
0,2,7.3|
1,0,5.8|
1,1,6.2|
1,2,5.9|
2,0,4.1|
2,1,3.7|
2,2,3.5|
];
constraint_x8_x5=[
0,0,4.5|
0,1,1.8|
0,2,7.3|
1,0,8.8|
1,1,9.7|
1,2,6.9|
2,0,4.5|
2,1,7.9|
2,2,1.2|
];
constraint_x8_x6=[
0,0,9.8|
0,1,2.3|
0,2,2.5|
1,0,7|
1,1,2.4|
1,2,7.9|
2,0,4.9|
2,1,5|
2,2,5.8|
];
constraint_x8_x7=[
0,0,1.6|
0,1,6.6|
0,2,5.3|
1,0,3.8|
1,1,9.9|
1,2,2.2|
2,0,9.5|
2,1,1.7|
2,2,5.6|
];
constraint_x9_x1=[
0,0,6|
0,1,7.8|
0,2,3.8|
1,0,2.7|
1,1,6.5|
1,2,8.5|
2,0,7.3|
2,1,6.2|
2,2,7.1|
];
constraint_x9_x7=[
0,0,2.2|
0,1,4.7|
0,2,1.4|
1,0,0.24|
1,1,8.7|
1,2,9.1|
2,0,0.46|
2,1,4.2|
2,2,1.9|
];
constraint_x9_x8=[
0,0,7.6|
0,1,8.9|
0,2,6.5|
1,0,9.9|
1,1,0.94|
1,2,3.5|
2,0,3.4|
2,1,6.9|
2,2,7.2|
];
constraint_x10_x1=[
0,0,4.8|
0,1,2.3|
0,2,6.9|
1,0,5.3|
1,1,0.85|
1,2,5.4|
2,0,1.9|
2,1,2.7|
2,2,4.3|
];
constraint_x10_x3=[
0,0,4.8|
0,1,8|
0,2,6.8|
1,0,1.3|
1,1,1.2|
1,2,5.5|
2,0,2.7|
2,1,2.1|
2,2,6.6|
];
constraint_x10_x5=[
0,0,4.5|
0,1,0.79|
0,2,3.9|
1,0,1.3|
1,1,5.3|
1,2,1.6|
2,0,6.1|
2,1,4.8|
2,2,5.7|
];
constraint_x10_x6=[
0,0,0.86|
0,1,3|
0,2,7.3|
1,0,9.9|
1,1,3.8|
1,2,0.36|
2,0,6|
2,1,6.8|
2,2,6.2|
];
constraint_x10_x8=[
0,0,6.1|
0,1,2|
0,2,9.7|
1,0,0.48|
1,1,3|
1,2,3.6|
2,0,4.6|
2,1,7.5|
2,2,1.1|
];
constraint_x10_x9=[
0,0,9.8|
0,1,1.7|
0,2,2|
1,0,5.9|
1,1,1.8|
1,2,1.5|
2,0,8.8|
2,1,0.2|
2,2,0.63|
];
constraint_x11_x2=[
0,0,2.6|
0,1,4.2|
0,2,3.7|
1,0,2.5|
1,1,5.9|
1,2,9.8|
2,0,0.31|
2,1,6.4|
2,2,3.2|
];
constraint_x11_x3=[
0,0,2|
0,1,0.38|
0,2,1.2|
1,0,8.1|
1,1,7.5|
1,2,3.5|
2,0,9.9|
2,1,5.7|
2,2,5.8|
];
constraint_x11_x4=[
0,0,9.7|
0,1,2.1|
0,2,2.1|
1,0,2.2|
1,1,2.2|
1,2,0.54|
2,0,6.6|
2,1,7.7|
2,2,8.9|
];
constraint_x11_x9=[
0,0,8.2|
0,1,2.6|
0,2,9.5|
1,0,2.5|
1,1,3.1|
1,2,1.2|
2,0,0.85|
2,1,3.7|
2,2,4.4|
];
constraint_x11_x10=[
0,0,0.67|
0,1,0.018|
0,2,4.6|
1,0,4.4|
1,1,6.7|
1,2,1.5|
2,0,2.3|
2,1,0.87|
2,2,9.3|
];
constraint_x12_x1=[
0,0,8.2|
0,1,9.1|
0,2,8.3|
1,0,6.7|
1,1,9.3|
1,2,6.2|
2,0,0.12|
2,1,0.21|
2,2,8.6|
];
constraint_x12_x2=[
0,0,7.1|
0,1,1.5|
0,2,6.7|
1,0,6.1|
1,1,5.2|
1,2,1.5|
2,0,9.7|
2,1,1.5|
2,2,5.9|
];
constraint_x12_x3=[
0,0,6.9|
0,1,5.5|
0,2,3|
1,0,3.6|
1,1,1.5|
1,2,2.4|
2,0,8.3|
2,1,7.8|
2,2,0.79|
];
constraint_x12_x10=[
0,0,5.9|
0,1,0.46|
0,2,9.2|
1,0,8.3|
1,1,7.9|
1,2,9.6|
2,0,0.048|
2,1,2.4|
2,2,2.9|
];
constraint_x1_y1=[
0,0,9.9|
0,1,7.5|
0,2,9.3|
1,0,1.8|
1,1,2.2|
1,2,6.2|
2,0,0.022|
2,1,3.6|
2,2,5.9|
];
constraint_x2_y2=[
0,0,8.8|
0,1,5.7|
0,2,0.57|
1,0,9.3|
1,1,7.5|
1,2,2.7|
2,0,7.4|
2,1,8.8|
2,2,6.3|
];
constraint_x3_y3=[
0,0,3.5|
0,1,0.78|
0,2,8.9|
1,0,9.4|
1,1,1.2|
1,2,8.9|
2,0,6.7|
2,1,0.23|
2,2,4.5|
];
constraint_x4_y4=[
0,0,2.8|
0,1,6.8|
0,2,0.11|
1,0,4.4|
1,1,4.6|
1,2,9.2|
2,0,9.1|
2,1,0.34|
2,2,1|
];
constraint_x5_y5=[
0,0,2.1|
0,1,6.8|
0,2,5.5|
1,0,3.6|
1,1,6.5|
1,2,8.1|
2,0,0.19|
2,1,8.5|
2,2,9.9|
];
constraint_x6_y6=[
0,0,8.6|
0,1,10|
0,2,6.3|
1,0,6.1|
1,1,3.7|
1,2,3.4|
2,0,8.7|
2,1,5.7|
2,2,0.13|
];
constraint_x7_y7=[
0,0,2.9|
0,1,5.3|
0,2,8.1|
1,0,7|
1,1,0.22|
1,2,9.2|
2,0,7.9|
2,1,4.1|
2,2,6.2|
];
constraint_x8_y8=[
0,0,9.6|
0,1,5.9|
0,2,0.035|
1,0,9.3|
1,1,2.4|
1,2,5.8|
2,0,2.6|
2,1,2.8|
2,2,0.11|
];
constraint_x9_y9=[
0,0,5.3|
0,1,0.79|
0,2,4.6|
1,0,9.5|
1,1,2.8|
1,2,4.6|
2,0,6.3|
2,1,0.24|
2,2,9.5|
];
constraint_x10_y10=[
0,0,7.1|
0,1,8.7|
0,2,5.3|
1,0,0.95|
1,1,3.8|
1,2,0.45|
2,0,3.7|
2,1,3.9|
2,2,8.8|
];
constraint_x11_y11=[
0,0,7.7|
0,1,6.8|
0,2,7.7|
1,0,4.5|
1,1,2.1|
1,2,8.9|
2,0,9.2|
2,1,9.9|
2,2,5.4|
];
constraint_x12_y12=[
0,0,9.6|
0,1,2.9|
0,2,6.5|
1,0,2.6|
1,1,7.2|
1,2,0.1|
2,0,9.5|
2,1,0.11|
2,2,2.3|
];
initial_distribution_y1=[0.25,0.22,0.53];
initial_distribution_y2=[0.53,0.3,0.17];
initial_distribution_y3=[0.28,0.33,0.39];
initial_distribution_y4=[0.073,0.14,0.79];
initial_distribution_y5=[0.56,0.11,0.34];
initial_distribution_y6=[0.59,0.14,0.27];
initial_distribution_y7=[0.051,0.32,0.63];
initial_distribution_y8=[0.28,0.32,0.4];
initial_distribution_y9=[0.32,0.67,0.0093];
initial_distribution_y10=[0.41,0.41,0.18];
initial_distribution_y11=[0.34,0.32,0.34];
initial_distribution_y12=[0.4,0.21,0.39];
transition_y1=[
0.43,0.45,0.12|
0.26,0.52,0.22|
0.48,0.17,0.35|
];
transition_y2=[
0.52,0.25,0.23|
0.44,0.18,0.37|
0.61,0.19,0.2|
];
transition_y3=[
0.33,0.53,0.13|
0.14,0.19,0.67|
0.38,0.21,0.41|
];
transition_y4=[
0.69,0.15,0.17|
0.28,0.22,0.51|
0.37,0.21,0.41|
];
transition_y5=[
0.24,0.3,0.46|
0.19,0.4,0.41|
0.24,0.29,0.47|
];
transition_y6=[
0.3,0.38,0.32|
0.4,0.33,0.27|
0.13,0.49,0.38|
];
transition_y7=[
0.13,0.26,0.6|
0.14,0.098,0.76|
0.46,0.19,0.35|
];
transition_y8=[
0.53,0.25,0.21|
0.13,0.15,0.72|
0.15,0.34,0.51|
];
transition_y9=[
0.068,0.084,0.85|
0.22,0.25,0.53|
0.2,0.51,0.29|
];
transition_y10=[
0.62,0.3,0.074|
0.3,0.36,0.34|
0.26,0.46,0.28|
];
transition_y11=[
0.53,0.13,0.34|
0.39,0.36,0.25|
0.48,0.13,0.39|
];
transition_y12=[
0.3,0.38,0.32|
0.28,0.33,0.39|
0.6,0.32,0.083|
];
